Set parameter TSPort to value 51199
Set parameter TokenServer to value "open-license1.lanl.gov"
Set parameter TimeLimit to value 128
Set parameter Threads to value 1
Gurobi Optimizer version 10.0.3 build v10.0.3rc0 (linux64)

CPU model: Intel(R) Xeon(R) CPU E5-2695 v4 @ 2.10GHz, instruction set [SSE2|AVX|AVX2]
Thread count: 36 physical cores, 72 logical processors, using up to 1 threads

Optimize a model with 0 rows, 598 columns and 0 nonzeros
Model fingerprint: 0x9381c687
Model has 2566 quadratic objective terms
Variable types: 0 continuous, 598 integer (598 binary)
Coefficient statistics:
  Matrix range     [0e+00, 0e+00]
  Objective range  [2e+00, 3e+01]
  QObjective range [8e+00, 8e+00]
  Bounds range     [1e+00, 1e+00]
  RHS range        [0e+00, 0e+00]
Found heuristic solution: objective 0.0000000
Found heuristic solution: objective -1020.000000
Found heuristic solution: objective -3648.000000
Found heuristic solution: objective -3670.000000
Presolve removed 0 rows and 1 columns
Presolve time: 0.22s
Presolved: 2565 rows, 3162 columns, 7695 nonzeros
Variable types: 0 continuous, 3162 integer (3162 binary)

Root relaxation: objective -4.924000e+03, 717 iterations, 0.01 seconds (0.01 work units)

    Nodes    |    Current Node    |     Objective Bounds      |     Work
 Expl Unexpl |  Obj  Depth IntInf | Incumbent    BestBd   Gap | It/Node Time

     0     0 -4924.0000    0  597 -3670.0000 -4924.0000  34.2%     -    0s
     0     0 -4479.0000    0  835 -3670.0000 -4479.0000  22.0%     -    0s
     0     0 -4479.0000    0  835 -3670.0000 -4479.0000  22.0%     -    0s
     0     0 -4394.3333    0  925 -3670.0000 -4394.3333  19.7%     -    0s
     0     0 -4394.3333    0  911 -3670.0000 -4394.3333  19.7%     -    1s
     0     2 -4394.3333    0  901 -3670.0000 -4394.3333  19.7%     -    1s
   505   472 -4362.8333    3  940 -3670.0000 -4372.3333  19.1%  92.8    5s
   528   488 -3704.0000  110 1660 -3670.0000 -4047.5759  10.3%  89.3   10s
   536   494 -3990.0278   55 2117 -3670.0000 -3990.0278  8.72%  88.0   15s
   543   498 -3889.0000   70 2387 -3670.0000 -3951.8933  7.68%  86.9   22s
   546   500 -3875.0000   72 2462 -3670.0000 -3946.0616  7.52%  86.4   25s
   552   504 -3682.6667  125 2624 -3670.0000 -3923.5088  6.91%  85.4   31s
   557   508 -3910.7984   31 2634 -3670.0000 -3910.7984  6.56%  84.7   36s
   563   512 -3907.6805   21 2713 -3670.0000 -3907.6805  6.48%  83.8   40s
   566   514 -3895.2356   63 2754 -3670.0000 -3895.2356  6.14%  83.3   45s
   575   520 -3727.0000  110 2792 -3670.0000 -3889.5730  5.98%  82.0   50s
   582   524 -3881.3188   16 2765 -3670.0000 -3881.3188  5.76%  81.0   56s
   592   531 -3878.1022   29 2806 -3670.0000 -3878.1022  5.67%  79.7   60s
   599   536 -3759.0000  100 2786 -3670.0000 -3873.2304  5.54%  78.7   65s
   609   542 -3688.0000  116 2805 -3670.0000 -3867.5847  5.38%  77.4   70s
   620   550 -3862.5445   75 2831 -3670.0000 -3862.5445  5.25%  76.1   75s
   631   557 -3719.0000  114 2864 -3670.0000 -3858.7248  5.14%  74.7   80s
   646   567 -3854.9085   72 2877 -3670.0000 -3854.9085  5.04%  73.0   85s
   664   579 -3783.0000   91 2877 -3670.0000 -3850.9352  4.93%  71.0   90s
   681   590 -3848.7748   26 2907 -3670.0000 -3848.7748  4.87%  69.3   95s
   696   602 -3848.0122   10 2510 -3670.0000 -3848.0122  4.85%   351  104s
   697   602 -3848.0122   49 2755 -3670.0000 -3848.0122  4.85%   351  111s
   699   604 -3759.0000  100 2849 -3670.0000 -3848.0122  4.85%   350  115s
   710   611 -3846.2851   61 2903 -3670.0000 -3846.2851  4.80%   344  120s
   722   619 -3844.4091   23 2909 -3670.0000 -3844.4091  4.75%   339  125s

Cutting planes:
  Gomory: 26
  MIR: 117
  Flow cover: 1045
  Zero half: 437
  RLT: 101
  BQP: 156

Explored 727 nodes (318788 simplex iterations) in 128.00 seconds (139.43 work units)
Thread count was 1 (of 72 available processors)

Solution count 4: -3670 -3648 -1020 0 

Time limit reached
Best objective -3.670000000000e+03, best bound -3.842000000000e+03, gap 4.6866%

User-callback calls 7449, time in user-callback 0.03 sec

BQP_SOLUTION, 598, 2566, -1312.000000, 128.002816, -1, 1, -1, 1, -1, 1, 1, -1, 1, -1, -1, 1, -1, -1, 1, -1, 1, 1, -1, 1, -1, -1, -1, -1, 1, -1, 1, -1, 1, -1, -1, 1, -1, 1, -1, 1, 1, -1, -1, 1, -1, -1, -1, -1, -1, -1, -1, -1, -1, 1, -1, -1, -1, -1, 1, -1, -1, -1, -1, -1, -1, 1, -1, -1, 1, -1, 1, -1, -1, 1, -1, -1, -1, -1, 1, 1, -1, -1, -1, 1, -1, -1, -1, -1, -1, 1, -1, 1, -1, -1, -1, -1, -1, 1, -1, 1, -1, -1, -1, 1, 1, -1, -1, 1, -1, 1, -1, -1, -1, -1, 1, -1, -1, 1, -1, 1, 1, -1, -1, -1, 1, -1, 1, 1, -1, 1, -1, -1, 1, -1, 1, -1, 1, 1, -1, 1, -1, -1, 1, -1, 1, 1, -1, 1, -1, 1, -1, -1, 1, -1, 1, 1, 1, 1, -1, 1, 1, -1, 1, 1, -1, 1, -1, 1, -1, 1, -1, -1, 1, 1, 1, 1, -1, 1, -1, 1, -1, 1, 1, 1, -1, -1, 1, 1, 1, 1, -1, 1, 1, -1, 1, -1, 1, 1, -1, 1, -1, 1, 1, -1, 1, -1, 1, 1, -1, 1, 1, -1, 1, -1, 1, 1, 1, 1, 1, -1, 1, 1, 1, -1, 1, 1, 1, 1, -1, -1, 1, -1, 1, -1, -1, 1, -1, 1, 1, -1, 1, -1, -1, -1, -1, -1, 1, 1, 1, -1, -1, 1, 1, -1, -1, -1, 1, 1, -1, -1, -1, -1, 1, 1, -1, -1, -1, 1, 1, -1, -1, -1, 1, 1, -1, -1, -1, 1, -1, -1, -1, -1, 1, 1, -1, 1, -1, 1, 1, -1, -1, -1, 1, 1, -1, 1, -1, 1, 1, -1, -1, 1, -1, 1, -1, -1, 1, -1, 1, 1, 1, -1, 1, 1, -1, 1, -1, 1, 1, -1, 1, 1, -1, 1, -1, -1, 1, 1, -1, -1, 1, -1, 1, -1, -1, 1, 1, 1, 1, -1, 1, 1, 1, -1, -1, -1, -1, 1, 1, -1, 1, 1, -1, 1, 1, -1, 1, 1, 1, -1, -1, 1, 1, -1, 1, 1, 1, 1, 1, -1, 1, 1, 1, 1, -1, 1, 1, 1, 1, -1, 1, 1, -1, 1, -1, -1, 1, -1, 1, 1, -1, 1, -1, 1, 1, -1, 1, 1, 1, 1, -1, 1, -1, 1, 1, -1, 1, -1, 1, 1, -1, 1, -1, 1, 1, 1, 1, -1, 1, 1, -1, 1, 1, 1, -1, -1, 1, 1, 1, -1, 1, -1, 1, 1, 1, -1, 1, 1, 1, 1, 1, 1, 1, 1, 1, -1, 1, 1, 1, 1, 1, 1, 1, 1, 1, -1, 1, 1, 1, 1, 1, 1, 1, -1, -1, -1, 1, 1, 1, 1, 1, 1, -1, -1, 1, -1, 1, 1, 1, -1, 1, 1, 1, 1, -1, 1, 1, 1, -1, 1, 1, 1, 1, -1, 1, -1, 1, 1, -1, -1, -1, 1, 1, 1, -1, -1, 1, 1, -1, -1, 1, 1, 1, 1, -1, -1, -1, -1, 1, -1, -1, 1, 1, 1, -1, -1, 1, -1, 1, -1, -1, 1, -1, 1, 1, -1, -1, 1, 1, -1, 1, -1, 1, 1, -1, -1, -1, 1, -1, -1, -1, 1, 1, 1, -1, -1, -1, -1, 1, -1, -1, 1, -1, 1, 1, -1, -1, -1, 1, -1, -1, -1, -1, 1, -1, -1, -1, 1, -1, 1, -1, -1, 1, -1, 1, -1, -1, -1, 1, 1, -1, -1, 1, -1, 1, -1, 1, 1, -1, 1, 1, -1
BQP_DATA, 598, 2566, -1312.000000, -1484.000000, -3670.000000, -3842.000000, 128.002816, 1625, 727
